PatchBench/BenchmarksExist/FFmpeg/CWE-189-Numeric-Errors/CVE_2014_8546_e7e5114c506957f40aafd794e06de1a7e341e9d5/cinepak_decode_vectors_SnippetExist32_2_Int.smt2
; benchmark generated from python API
(set-info :status unknown)
(declare-fun rdi () Int)
(declare-fun x9 () Bool)
(declare-fun x163 () Bool)
(declare-fun x157 () Bool)
(declare-fun x158 () Bool)
(declare-fun x155 () Bool)
(declare-fun x84 () Int)

(assert (= x9 rdi))
(assert (= x163 (<= x9 1)))
(assert (= x84 (+ 4294967292 x9)))
(assert (= x157 (<= x84 1)))
(assert (= x158 (not x157)))
(assert (= x155 (<= x84 2)))
(assert (= x156 (not x155)))
(assert (= x153 (<= x84 3)))
(assert (= x154 (not x153)))
(assert (= x164 (not x163)))
(assert (= x161 (<= x9 2)))
(assert (= x162 (not x161)))
(assert (= x159 (<= x9 3)))
(assert (= x160 (not x159)))

(assert (= $x663 (or (and $x154 $x156 $x158 $x160 $x162 $x164) (and $x153 $x156 $x158 $x160 $x162 $x164) (and $x155 $x158 $x160 $x162 $x164) (and $x157 $x160 $x162 $x164) (and $x154 $x156 $x158 $x163)))
(assert (= x142 (or (= rdi 0) (= rdi 1))))
(assert (= x115 (or (= x84 0) (= x84 1))))
(assert (= x121 (not x115)))
(assert (= x98 (and (>= rdi 0) (<= rdi 4))))
(assert (= x105 (<= x98 2)))
(assert (= x92 (mod x84 1073741824)))




 ;(let (($x92 (= ((_ extract 31 2) ?x84) (_ bv0 30))))
 ;(let (($x106 (and $x92 $x105)))
 ;(let (($x107 (not $x106)))
 ;(let (($x97 (not $x92)))
 ;(let (($x143 (not $x142)))
 ;(let (($x128 (= ((_ extract 31 2) rdi) (_ bv0 30))))
 ;(let (($x134 (and $x128 $x105)))
 ;(let (($x135 (not $x134)))
 ;(let (($x130 (not $x128)))
 ;(let (($x657 (or (and $x97 $x107 $x121 $x130 $x135 $x143) (and $x92 $x107 $x121 $x130 $x135 $x143) (and $x97 $x107 $x121 $x128 $x135 $x143) (and $x92 $x105 $x121 $x130 $x135 $x143) (and $x97 $x107 $x121 $x128 $x105 $x143) (and $x115 $x130 $x135 $x143) (and $x97 $x107 $x121 $x142))))
 ;(and $x657 $x663))))))))))))))))))))))))))))))))
(check-sat)

